data;


param d:= 100;
param r:=5;
param p:=0.200000;
param M:=1000;
param U:=
         1         1        7.639845e-01
         2         1        1.920056e+00
         3         1       -9.777387e-01
         4         1        1.057970e+00
         5         1        8.347844e-01
         6         1        5.525792e-01
         7         1        7.097133e-01
         8         1        2.829635e-02
         9         1       -7.373731e-01
        10         1        1.692676e-01
        11         1        5.390346e-01
        12         1        6.353037e-01
        13         1        9.123153e-02
        14         1       -5.677772e-01
        15         1        1.277031e+00
        16         1       -6.347651e-01
        17         1        8.321586e-01
        18         1       -5.070043e-01
        19         1       -4.988580e-01
        20         1       -1.128740e+00
        21         1        1.735915e+00
        22         1        2.942549e-01
        23         1       -1.503463e-01
        24         1       -2.572526e+00
        25         1       -5.599872e-01
        26         1        2.837311e-02
        27         1       -1.772305e-01
        28         1        3.472691e-01
        29         1       -1.124933e-01
        30         1       -6.665217e-01
        31         1       -4.694361e-01
        32         1       -1.769278e+00
        33         1        1.002127e+00
        34         1       -3.696688e-02
        35         1       -4.456480e-01
        36         1        7.380893e-01
        37         1       -1.478068e-01
        38         1       -1.829859e+00
        39         1       -7.264332e-01
        40         1        1.151674e+00
        41         1        3.633350e-01
        42         1       -6.441294e-01
        43         1        2.588053e+00
        44         1        8.600111e-01
        45         1        9.646828e-01
        46         1       -4.532167e-02
        47         1        5.119861e-01
        48         1       -6.016062e-01
        49         1        8.926256e-01
        50         1       -1.821970e+00
        51         1       -4.266291e-01
        52         1       -5.593926e-01
        53         1       -3.323746e+00
        54         1       -8.002758e-01
        55         1        1.013423e+00
        56         1        4.646814e-01
        57         1       -1.569693e+00
        58         1       -9.988108e-01
        59         1        5.804735e-01
        60         1       -9.774141e-01
        61         1       -1.014093e+00
        62         1       -1.052114e-01
        63         1       -1.034074e+00
        64         1       -7.069142e-02
        65         1        1.501039e+00
        66         1        3.812800e-01
        67         1        6.870239e-01
        68         1       -5.609418e-02
        69         1       -1.118286e-01
        70         1       -8.109437e-01
        71         1        1.507641e-01
        72         1        5.992746e-01
        73         1        8.606823e-01
        74         1        6.996674e-01
        75         1       -1.657191e-01
        76         1        2.016433e+00
        77         1       -1.573844e+00
        78         1       -3.105351e-01
        79         1        2.813825e-01
        80         1        6.410880e-01
        81         1        1.363108e+00
        82         1       -1.110491e+00
        83         1       -5.868573e-01
        84         1        2.850984e-01
        85         1       -9.127577e-01
        86         1        1.969423e+00
        87         1       -1.068985e+00
        88         1       -4.867545e-01
        89         1        5.069695e-02
        90         1       -8.010825e-01
        91         1       -7.144910e-01
        92         1       -1.587692e+00
        93         1       -9.709654e-02
        94         1       -5.889394e-01
        95         1        1.183085e+00
        96         1       -4.605699e-01
        97         1       -1.705306e+00
        98         1       -1.893571e-01
        99         1        9.864864e-01
       100         1       -4.794835e-03
         1         2       -1.075587e+00
         2         2       -3.173672e+00
         3         2       -6.344991e-01
         4         2        1.105570e+00
         5         2        1.214643e+00
         6         2        2.387339e-01
         7         2        6.492007e-01
         8         2       -6.426674e-01
         9         2       -1.038439e+00
        10         2       -1.200351e+00
        11         2        1.192076e+00
        12         2        6.960055e-01
        13         2       -1.169671e+00
        14         2        1.743492e-01
        15         2       -1.112049e+00
        16         2        3.344466e-01
        17         2        8.349045e-02
        18         2       -8.358614e-01
        19         2       -5.641258e-01
        20         2        7.464517e-01
        21         2        1.436294e-01
        22         2       -8.946545e-02
        23         2       -3.822911e-01
        24         2        7.913371e-01
        25         2        5.598953e-01
        26         2       -2.902936e-01
        27         2       -1.556389e-01
        28         2        7.830505e-01
        29         2        7.023502e-01
        30         2       -1.768697e-01
        31         2       -8.467366e-01
        32         2       -6.958609e-01
        33         2       -5.525151e-01
        34         2        1.971284e-01
        35         2       -1.071900e+00
        36         2       -2.370074e+00
        37         2       -5.930317e-01
        38         2        2.981102e-01
        39         2        1.296116e+00
        40         2        7.288225e-01
        41         2       -1.664133e+00
        42         2       -5.343085e-01
        43         2        6.707066e-01
        44         2       -1.052974e+00
        45         2        8.150530e-01
        46         2        7.249766e-01
        47         2       -2.027026e-01
        48         2        4.888481e-01
        49         2        4.235028e-01
        50         2       -1.735241e-01
        51         2       -1.500222e+00
        52         2       -5.567345e-01
        53         2        4.768481e-01
        54         2       -3.199518e-01
        55         2        1.339241e+00
        56         2       -5.173798e-01
        57         2       -2.277910e-02
        58         2       -3.235467e-01
        59         2        2.760693e-01
        60         2       -1.101005e+00
        61         2       -1.701706e-01
        62         2        9.320699e-01
        63         2        9.404536e-01
        64         2        6.243098e-02
        65         2        1.813580e+00
        66         2        5.928646e-01
        67         2        5.068758e-01
        68         2       -1.173694e+00
        69         2       -1.176333e+00
        70         2        5.822302e-03
        71         2        8.790269e-01
        72         2        1.326197e+00
        73         2        2.048308e+00
        74         2        1.031111e+00
        75         2       -1.587020e+00
        76         2        2.340320e+00
        77         2        1.390351e+00
        78         2       -1.168696e-01
        79         2       -1.635650e+00
        80         2        2.395834e-01
        81         2        2.166351e-01
        82         2       -1.154863e+00
        83         2       -7.071021e-01
        84         2       -3.925300e-01
        85         2       -1.949706e-02
        86         2       -5.241046e-01
        87         2       -7.045877e-01
        88         2       -4.392984e-01
        89         2       -1.214833e+00
        90         2        1.144753e-01
        91         2       -3.979777e-01
        92         2        1.279701e+00
        93         2       -5.742633e-02
        94         2        6.440123e-01
        95         2       -1.125703e+00
        96         2        1.044718e-01
        97         2        2.788583e+00
        98         2       -2.702940e-01
        99         2       -1.289960e+00
       100         2       -2.541291e-01
         1         3       -6.133283e-01
         2         3        5.111576e-01
         3         3       -1.218400e+00
         4         3        6.220456e-01
         5         3       -2.902795e-01
         6         3       -1.474747e+00
         7         3       -8.451212e-01
         8         3        3.143246e-01
         9         3        1.791656e-01
        10         3        4.799202e-01
        11         3        1.648477e+00
        12         3       -1.757832e+00
        13         3       -5.239048e-01
        14         3       -1.216165e+00
        15         3        8.720775e-01
        16         3       -2.537168e-02
        17         3       -5.533766e-01
        18         3        1.203063e+00
        19         3        7.044860e-01
        20         3       -1.139235e-01
        21         3       -1.060191e+00
        22         3       -1.645101e+00
        23         3       -7.024413e-01
        24         3        1.619053e+00
        25         3       -7.323049e-01
        26         3        1.031260e+00
        27         3       -2.005965e+00
        28         3       -2.338667e+00
        29         3        3.649306e-01
        30         3       -1.333280e+00
        31         3        1.037592e+00
        32         3       -7.181429e-01
        33         3        1.475085e-01
        34         3       -6.948906e-01
        35         3        8.249400e-01
        36         3       -2.378518e+00
        37         3        6.696766e-01
        38         3       -3.110312e-01
        39         3       -2.687589e-01
        40         3       -8.112372e-01
        41         3       -1.032763e+00
        42         3       -2.656377e-01
        43         3       -8.302181e-01
        44         3       -6.239689e-01
        45         3        4.685664e-01
        46         3       -1.678091e+00
        47         3       -4.703517e-01
        48         3        7.927499e-01
        49         3       -1.123383e+00
        50         3       -4.001740e-01
        51         3       -1.019565e+00
        52         3       -3.894279e-01
        53         3        8.689976e-01
        54         3       -1.535404e+00
        55         3        4.045131e-02
        56         3        1.310596e+00
        57         3        1.097439e+00
        58         3       -7.915924e-01
        59         3        6.256616e-01
        60         3        6.023803e-01
        61         3       -7.088087e-02
        62         3       -2.401268e-01
        63         3       -9.080525e-01
        64         3       -2.030533e+00
        65         3        1.113092e-01
        66         3       -6.980612e-01
        67         3       -7.073589e-01
        68         3       -5.284518e-02
        69         3       -1.146527e+00
        70         3       -2.877675e-01
        71         3        1.615344e+00
        72         3       -2.128040e-01
        73         3        1.838726e+00
        74         3       -4.755054e-01
        75         3        2.867194e-01
        76         3       -5.062482e-01
        77         3        6.208288e-01
        78         3        9.741230e-01
        79         3       -1.541576e+00
        80         3        6.353646e-01
        81         3       -8.052817e-02
        82         3        8.638817e-02
        83         3       -4.662786e-01
        84         3       -7.195161e-02
        85         3       -1.084835e+00
        86         3        1.702570e+00
        87         3        8.152102e-01
        88         3        1.051151e+00
        89         3        7.275665e-01
        90         3        1.251782e+00
        91         3        1.023004e+00
        92         3        1.433370e+00
        93         3       -3.681270e-01
        94         3       -5.283127e-01
        95         3       -3.441214e-01
        96         3        1.304220e+00
        97         3        8.389982e-01
        98         3        1.173311e+00
        99         3        1.494167e+00
       100         3        4.467020e-01
         1         4       -1.334564e-01
         2         4        7.032710e-03
         3         4       -1.223255e+00
         4         4        1.427311e+00
         5         4        1.934458e+00
         6         4       -2.496246e-01
         7         4        7.699180e-02
         8         4       -1.774933e-02
         9         4       -1.168476e-01
        10         4       -2.631634e+00
        11         4        3.823819e-01
        12         4       -1.238501e+00
        13         4        2.255228e+00
        14         4        8.827358e-01
        15         4       -2.186466e+00
        16         4       -7.994054e-01
        17         4        1.809677e+00
        18         4        4.538055e-01
        19         4        7.722448e-01
        20         4        4.831796e-02
        21         4        5.778737e-01
        22         4        3.212174e-01
        23         4        3.974110e-01
        24         4       -5.346654e-01
        25         4       -1.250880e+00
        26         4        7.111960e-01
        27         4        1.096896e+00
        28         4        1.416170e-01
        29         4       -2.545815e-01
        30         4        4.009509e-01
        31         4        5.143746e-01
        32         4       -2.104664e+00
        33         4       -1.540623e+00
        34         4        6.159111e-01
        35         4       -9.786685e-01
        36         4       -9.659508e-01
        37         4       -9.123090e-01
        38         4       -6.958125e-03
        39         4       -7.480295e-01
        40         4        1.188908e+00
        41         4        9.387031e-01
        42         4        8.079042e-02
        43         4       -1.174169e+00
        44         4        2.101328e+00
        45         4       -3.993819e-01
        46         4       -3.722936e-01
        47         4       -4.886511e-01
        48         4       -5.024190e-01
        49         4       -2.001911e-01
        50         4       -6.364708e-01
        51         4        9.001751e-01
        52         4       -4.080850e-01
        53         4        2.279209e-01
        54         4        1.010165e+00
        55         4        2.041418e+00
        56         4       -1.663575e+00
        57         4       -1.943504e+00
        58         4        1.669360e-01
        59         4       -4.818517e-01
        60         4       -7.406420e-02
        61         4        2.737556e+00
        62         4        1.052988e-02
        63         4        5.769569e-01
        64         4       -7.585714e-01
        65         4       -2.761404e-01
        66         4       -2.053798e-01
        67         4        1.062067e+00
        68         4        7.366534e-01
        69         4       -5.292839e-01
        70         4       -3.857959e-01
        71         4        1.040084e-01
        72         4        3.007114e-01
        73         4        9.182622e-01
        74         4        5.543874e-02
        75         4       -7.437252e-01
        76         4        7.728238e-02
        77         4       -6.697984e-01
        78         4       -1.947475e-01
        79         4       -3.172082e-01
        80         4       -1.866619e-01
        81         4       -2.666466e-01
        82         4       -3.041629e+00
        83         4       -2.997869e-01
        84         4       -3.003429e-01
        85         4        1.082522e+00
        86         4        8.457619e-01
        87         4        1.793564e-01
        88         4        3.813207e-01
        89         4       -1.121978e+00
        90         4        5.670651e-01
        91         4       -8.847125e-01
        92         4       -2.563619e+00
        93         4        2.625659e-01
        94         4        7.160238e-01
        95         4       -8.030173e-01
        96         4        8.115722e-01
        97         4        4.367205e-01
        98         4        2.267120e-01
        99         4       -6.844563e-01
       100         4        1.194208e+00
         1         5       -1.775162e-02
         2         5        6.109559e-01
         3         5       -3.320377e-01
         4         5        1.153934e+00
         5         5        8.001905e-01
         6         5       -6.796265e-01
         7         5       -1.939166e+00
         8         5       -8.099583e-01
         9         5       -5.391282e-01
        10         5        1.441351e+00
        11         5       -5.774409e-01
        12         5        4.124163e-01
        13         5       -5.855853e-01
        14         5       -1.015062e+00
        15         5        8.140783e-01
        16         5       -7.019682e-01
        17         5       -3.987010e-01
        18         5       -3.918101e-01
        19         5       -2.962634e-01
        20         5        6.617181e-01
        21         5        1.020021e-01
        22         5        6.447400e-01
        23         5        5.373910e-01
        24         5       -1.633956e+00
        25         5        4.992520e-01
        26         5        6.104908e-01
        27         5       -1.593339e+00
        28         5       -1.772268e+00
        29         5        7.126779e-01
        30         5       -1.810332e+00
        31         5        5.852806e-01
        32         5        5.581698e-01
        33         5        9.860910e-01
        34         5       -2.115347e-01
        35         5        7.683366e-01
        36         5       -1.270014e+00
        37         5        9.159820e-01
        38         5        1.975298e-01
        39         5        7.163263e-01
        40         5       -3.357295e-01
        41         5       -9.704499e-01
        42         5       -7.452731e-01
        43         5        3.413712e-01
        44         5        1.152889e+00
        45         5        2.286005e-01
        46         5        1.009966e+00
        47         5        7.761723e-01
        48         5       -5.339551e-01
        49         5        9.557940e-01
        50         5        3.239668e-01
        51         5       -2.111285e-01
        52         5        1.306295e+00
        53         5       -3.700286e-01
        54         5       -9.848679e-01
        55         5        9.244487e-01
        56         5        2.818582e-01
        57         5       -5.867648e-01
        58         5       -1.024432e-02
        59         5       -6.090374e-01
        60         5       -8.244252e-01
        61         5       -2.194290e-01
        62         5       -9.939261e-01
        63         5        3.635436e-01
        64         5       -1.411349e+00
        65         5       -3.590048e-01
        66         5        1.613982e-01
        67         5       -9.663462e-01
        68         5        2.073394e-01
        69         5       -1.368091e+00
        70         5        1.455688e+00
        71         5        9.831221e-01
        72         5       -7.615143e-01
        73         5        5.038773e-02
        74         5       -3.965497e-01
        75         5        1.469474e+00
        76         5       -1.169841e+00
        77         5       -6.909768e-01
        78         5        1.221287e-01
        79         5       -2.002774e+00
        80         5        2.532204e-01
        81         5        1.560190e+00
        82         5        7.377233e-01
        83         5       -1.869508e-01
        84         5       -7.216109e-01
        85         5        5.462810e-04
        86         5        4.657080e-01
        87         5       -9.967199e-01
        88         5        7.032085e-01
        89         5        1.009023e+00
        90         5        7.616276e-01
        91         5        5.218118e-01
        92         5       -7.320561e-01
        93         5        3.364563e-01
        94         5        9.928573e-01
        95         5       -4.833441e-01
        96         5       -1.224574e-01
        97         5        1.749965e+00
        98         5        1.695668e+00
        99         5        1.628979e-02
       100         5        5.120914e-01
;

param theta:=
    1        1.870640e+00
    2        3.583972e-01
    3       -5.817455e-01
    4       -1.248238e-01
    5        2.535153e-01
;
param X_true:=
    1        1.412612e+00
    2        2.310944e+00
    3       -1.279086e+00
    4        2.127819e+00
    5        2.127169e+00
    6        1.836029e+00
    7        1.550717e+00
    8       -5.633761e-01
    9       -1.977854e+00
   10        3.011404e-01
   11        2.824611e-01
   12        2.719630e+00
   13       -3.737273e-01
   14       -6.596421e-01
   15        1.962287e+00
   16       -1.130967e+00
   17        1.581548e+00
   18       -2.103845e+00
   19       -1.716698e+00
   20       -1.615941e+00
   21        3.869236e+00
   22        1.598767e+00
   23        7.701682e-02
   24       -5.818028e+00
   25       -1.381467e-01
   26       -5.849008e-01
   27        2.387917e-01
   28        1.823794e+00
   29        4.144179e-02
   30       -1.043577e+00
   31       -1.701057e+00
   32       -2.737083e+00
   33        2.033081e+00
   34        2.752404e-01
   35       -1.380772e+00
   36        1.713570e+00
   37       -5.325222e-01
   38       -3.084280e+00
   39       -4.630495e-01
   40        2.653992e+00
   41        3.208574e-01
   42       -1.440918e+00
   43        5.797777e+00
   44        1.624359e+00
   45        1.931906e+00
   46        1.453784e+00
   47        1.416485e+00
   48       -1.484017e+00
   49        2.742383e+00
   50       -3.076064e+00
   51       -9.085048e-01
   52       -6.373016e-01
   53       -6.674424e+00
   54       -1.094255e+00
   55        2.331742e+00
   56        2.005002e-01
   57       -3.489083e+00
   58       -1.547303e+00
   59        7.265696e-01
   60       -2.773178e+00
   61       -2.314097e+00
   62        2.364131e-02
   63       -1.048922e+00
   64        8.082794e-01
   65        3.336586e+00
   66        1.398366e+00
   67        1.500785e+00
   68       -5.342264e-01
   69       -2.445636e-01
   70       -9.302936e-01
   71       -1.063993e-01
   72        1.489539e+00
   73        1.172617e+00
   74        1.847544e+00
   75       -5.802131e-01
   76        4.599072e+00
   77       -2.898528e+00
   78       -1.134206e+00
   79        3.688191e-01
   80        1.002985e+00
   81        3.103188e+00
   82       -1.974792e+00
   83       -1.089941e+00
   84        2.890428e-01
   85       -1.218317e+00
   86        2.518274e+00
   87       -3.001524e+00
   88       -1.548812e+00
   89       -3.679632e-01
   90       -2.063427e+00
   91       -1.831597e+00
   92       -3.210802e+00
   93        6.446454e-02
   94       -4.012100e-01
   95        1.987568e+00
   96       -1.715190e+00
   97       -2.289547e+00
   98       -7.320813e-01
   99        6.033840e-01
  100       -3.791581e-01
;
param X:=
    1       -5.206280e-01
    2        2.310944e+00
    3       -1.279086e+00
    4        2.127819e+00
    5        2.127169e+00
    6        1.836029e+00
    7        1.550717e+00
    8       -5.633761e-01
    9       -1.977854e+00
   10        1.442703e+00
   11        2.824611e-01
   12        2.719630e+00
   13       -3.737273e-01
   14       -6.596421e-01
   15        1.962287e+00
   16       -1.130967e+00
   17        1.581548e+00
   18       -2.103845e+00
   19       -1.716698e+00
   20       -1.615941e+00
   21        3.869236e+00
   22       -2.317277e-01
   23        3.009946e-01
   24       -5.818028e+00
   25       -1.381467e-01
   26       -5.849008e-01
   27        2.387917e-01
   28        1.823794e+00
   29        4.144179e-02
   30        1.702130e+00
   31       -1.701057e+00
   32       -2.737083e+00
   33        3.741457e-01
   34        7.092352e-01
   35        7.005147e-01
   36        1.713570e+00
   37       -5.325222e-01
   38       -3.084280e+00
   39       -4.630495e-01
   40        2.653992e+00
   41        3.208574e-01
   42       -1.440918e+00
   43        5.797777e+00
   44        1.624359e+00
   45        1.931906e+00
   46        1.453784e+00
   47        1.416485e+00
   48       -1.484017e+00
   49       -8.960798e-01
   50        4.001996e-01
   51       -9.085048e-01
   52       -6.373016e-01
   53        1.042365e+00
   54       -1.094255e+00
   55        2.331742e+00
   56        2.005002e-01
   57       -3.489083e+00
   58       -1.547303e+00
   59        7.265696e-01
   60       -9.614148e-02
   61       -2.314097e+00
   62        2.364131e-02
   63       -1.048922e+00
   64        8.082794e-01
   65        3.336586e+00
   66        1.398366e+00
   67        1.500785e+00
   68       -8.351610e-03
   69       -2.445636e-01
   70       -9.302936e-01
   71       -1.063993e-01
   72        1.489539e+00
   73        1.172617e+00
   74        1.847544e+00
   75       -1.625473e+00
   76        5.578042e-01
   77       -2.898528e+00
   78       -1.134206e+00
   79        3.688191e-01
   80        1.002985e+00
   81        1.143127e+00
   82       -1.974792e+00
   83       -1.089941e+00
   84        2.890428e-01
   85       -1.218317e+00
   86        2.518274e+00
   87       -8.289738e-01
   88        1.354102e+00
   89       -3.679632e-01
   90       -2.063427e+00
   91        3.497530e-01
   92        1.294337e+00
   93        6.446454e-02
   94       -4.012100e-01
   95        1.987568e+00
   96       -1.715190e+00
   97       -2.289547e+00
   98       -7.320813e-01
   99        6.033840e-01
  100       -3.791581e-01
;
param outliervec:=
    1    1
    2    0
    3    0
    4    0
    5    0
    6    0
    7    0
    8    0
    9    0
   10    1
   11    0
   12    0
   13    0
   14    0
   15    0
   16    0
   17    0
   18    0
   19    0
   20    0
   21    0
   22    1
   23    1
   24    0
   25    0
   26    0
   27    0
   28    0
   29    0
   30    1
   31    0
   32    0
   33    1
   34    1
   35    1
   36    0
   37    0
   38    0
   39    0
   40    0
   41    0
   42    0
   43    0
   44    0
   45    0
   46    0
   47    0
   48    0
   49    1
   50    1
   51    0
   52    0
   53    1
   54    0
   55    0
   56    0
   57    0
   58    0
   59    0
   60    1
   61    0
   62    0
   63    0
   64    0
   65    0
   66    0
   67    0
   68    1
   69    0
   70    0
   71    0
   72    0
   73    0
   74    0
   75    1
   76    1
   77    0
   78    0
   79    0
   80    0
   81    1
   82    0
   83    0
   84    0
   85    0
   86    0
   87    1
   88    1
   89    0
   90    0
   91    1
   92    1
   93    0
   94    0
   95    0
   96    0
   97    0
   98    0
   99    0
  100    0
;